--- Job zonal_with_locational_instrument.gms Start 11/26/21 22:33:39 30.3.0 rc5da09e WEX-WEI x86 64bit/MS Windows
--- GAMS Parameters defined
    Input C:\Users\a.eicke\Documents\Locational-investment-signals\Three node models\zonal_with_locational_instrument.gms
    PageSize 0
    ScrDir C:\Users\a.eicke\Documents\Locational-investment-signals\Three node models\225b\
    SysDir C:\GAMS\win64\30.3\
    LogOption 3
    ErrMsg 1
    ErrorLog 99
    IDE 1
    LstTitleLeftAligned 1
GAMS 30.3.0   Copyright (C) 1987-2020 GAMS Development. All rights reserved
Licensee: Small MUD - 5 User License                     S190305:0326AO-WIN
          Hertie School of Governance GmbH, Governance of DigitalizaDC14808
--- Starting compilation
--- zonal_with_locational_instrument.gms(84) 3 Mb
--- GDXin=C:\Users\a.eicke\Documents\Locational-investment-signals\Three node models\in.gdx
--- zonal_with_locational_instrument.gms(319) 3 Mb
--- Starting execution: elapsed 0:00:00.007
--- zonal_with_locational_instrument.gms(290) 4 Mb
--- Generating MIQCP model LOCI
--- zonal_with_locational_instrument.gms(293) 7 Mb
---   2,347 rows  1,741 columns  6,521 non-zeroes
---   322 nl-code  56 nl-non-zeroes
---   472 discrete-columns
--- zonal_with_locational_instrument.gms(293) 5 Mb
--- Executing CPLEX: elapsed 0:00:00.025

IBM ILOG CPLEX   30.3.0 rc5da09e Released Mar 06, 2020 WEI x86 64bit/MS Window
--- GAMS/Cplex licensed for continuous and discrete problems.
Cplex 12.10.0.0

The search will stop after 25000000 nodes.
Reading data...
Starting Cplex...
Space for names approximately 0.12 Mb
Use option 'names no' to turn use of names off
Version identifier: 12.10.0.0 | 2019-11-26 | 843d4de2ae
CPXPARAM_Advance                                 0
CPXPARAM_Threads                                 1
CPXPARAM_Parallel                                1
CPXPARAM_MIP_Display                             4
CPXPARAM_Simplex_Limits_Iterations               2000000000
CPXPARAM_MIP_Limits_Nodes                        25000000
CPXPARAM_TimeLimit                               40000
CPXPARAM_Tune_TimeLimit                          8000
CPXPARAM_MIP_Tolerances_AbsMIPGap                0
CPXPARAM_MIP_Tolerances_MIPGap                   0.10000000000000001
CPXPARAM_WorkDir                                 "C:\Users\a.eicke\Documents\Locational-investment-signals\Three node models\225b\"
Tried aggregator 2 times.
MIQP Presolve eliminated 610 rows and 230 columns.
MIQP Presolve modified 652 coefficients.
Aggregator did 49 substitutions.
Reduced MIQP has 1688 rows, 1453 columns, and 4816 nonzeros.
Reduced MIQP has 408 binaries, 0 generals, 0 SOSs, and 0 indicators.
Reduced MIQP objective Q matrix has 104 nonzeros.
Presolve time = 0.02 sec. (4.93 ticks)
Probing fixed 0 vars, tightened 161 bounds.
Probing time = 0.00 sec. (1.36 ticks)
Tried aggregator 1 time.
MIQP Presolve modified 158 coefficients.
Reduced MIQP has 1688 rows, 1453 columns, and 4816 nonzeros.
Reduced MIQP has 408 binaries, 0 generals, 0 SOSs, and 0 indicators.
Reduced MIQP objective Q matrix has 104 nonzeros.
Presolve time = 0.00 sec. (2.80 ticks)
Classifier predicts products in MIQP should be linearized.
Probing fixed 0 vars, tightened 6 bounds.
Probing time = 0.00 sec. (1.09 ticks)
Clique table members: 352.
MIP emphasis: balance optimality and feasibility.
MIP search method: dynamic search.
Parallel mode: none, using 1 thread.
Number of nonzeros in lower triangle of Q = 24
Using Approximate Minimum Degree ordering
Total time for automatic ordering = 0.00 sec. (0.00 ticks)
Summary statistics for factor of Q:
  Rows in Factor            = 56
  Integer space required    = 56
  Total non-zeros in factor = 80
  Total FP ops to factor    = 128
Tried aggregator 1 time.
Aggregator did 408 substitutions.
Number of nonzeros in lower triangle of Q = 24
Using Approximate Minimum Degree ordering
Total time for automatic ordering = 0.00 sec. (0.00 ticks)
Summary statistics for factor of Q:
  Rows in Factor            = 56
  Integer space required    = 56
  Total non-zeros in factor = 80
  Total FP ops to factor    = 128
Reduced QP has 1280 rows, 1045 columns, and 4000 nonzeros.
Reduced QP objective Q matrix has 104 nonzeros.
Presolve time = 0.02 sec. (1.24 ticks)
Tried aggregator 1 time.
QP Presolve eliminated 24 rows and 24 columns.
QP Presolve added 0 rows and 56 columns.
Reduced QP has 1312 rows, 1077 columns, and 4088 nonzeros.
Reduced QP objective Q matrix has 32 nonzeros.
Presolve time = 0.00 sec. (0.62 ticks)
Parallel mode: none, using 1 thread for barrier

***NOTE: Found 6 dense columns.

Number of nonzeros in lower triangle of A*A' = 9879
Using Approximate Minimum Degree ordering
Total time for automatic ordering = 0.00 sec. (0.90 ticks)
Summary statistics for Cholesky factor:
  Rows in Factor            = 1318
  Integer space required    = 4974
  Total non-zeros in factor = 43425
  Total FP ops to factor    = 3702051
 Itn      Primal Obj        Dual Obj  Prim Inf Upper Inf  Dual Inf          
   0   1.0402584e+06   3.8265566e+10  5.06e+05  2.58e+05  1.00e+06
   1  -4.0956057e+04   2.6803317e+10  3.52e+05  1.80e+05  6.97e+05
   2  -1.5746790e+06   1.9299450e+10  2.52e+05  1.28e+05  4.98e+05
   3  -3.4677004e+06   1.0265181e+10  1.32e+05  6.74e+04  2.62e+05
   4  -4.3173730e+06   9.0688153e+08  1.06e+04  5.43e+03  2.11e+04
   5  -2.2058961e+06   1.6681663e+08  1.94e+03  9.87e+02  3.84e+03
   6  -2.0603159e+06   1.3377494e+08  1.47e+03  7.49e+02  2.91e+03
   7  -1.3213858e+06   6.0158156e+07  5.78e+02  2.94e+02  1.14e+03
   8  -7.9416267e+05   2.3894383e+07  1.70e+02  8.67e+01  3.37e+02
   9  -1.0379903e+05   3.0906999e+06  4.86e-10  1.38e-09  4.58e-11
  10   6.5704658e+04   1.5043124e+06  4.13e-10  8.76e-10  2.41e-11
  11   1.0062647e+05   9.8633917e+05  2.78e-10  1.42e-09  1.18e-11
  12   1.5969301e+05   4.3205762e+05  5.88e-10  1.25e-09  9.29e-12
  13   1.9220781e+05   2.9885782e+05  8.33e-10  1.14e-09  6.32e-12
  14   2.0197113e+05   2.5178304e+05  9.04e-10  1.29e-09  5.58e-12
  15   2.0623170e+05   2.3435738e+05  1.03e-09  1.23e-09  4.97e-12
  16   2.0944410e+05   2.2170613e+05  1.56e-09  1.04e-09  5.17e-12
  17   2.1087115e+05   2.1529501e+05  2.06e-09  1.24e-09  5.10e-12
  18   2.1159550e+05   2.1218449e+05  2.91e-09  1.53e-09  5.39e-12
  19   2.1169744e+05   2.1180335e+05  3.13e-09  1.35e-09  5.13e-12
  20   2.1171003e+05   2.1175315e+05  4.61e-09  1.09e-09  5.15e-12
  21   2.1171548e+05   2.1172956e+05  8.30e-09  1.17e-09  4.69e-12
  22   2.1171773e+05   2.1171966e+05  1.26e-08  1.27e-09  5.53e-12
  23   2.1171806e+05   2.1171833e+05  1.85e-08  1.26e-09  5.65e-12
  24   2.1171811e+05   2.1171813e+05  3.12e-08  1.32e-09  6.05e-12
  25   2.1171811e+05   2.1171811e+05  7.18e-08  1.36e-09  5.72e-12
  26   2.1171811e+05   2.1171811e+05  1.98e-07  1.53e-09  5.88e-12
Barrier time = 0.11 sec. (57.41 ticks)

Total time on 1 threads = 0.13 sec. (58.65 ticks)
Barrier time = 0.11 sec. (57.43 ticks)

QP crossover.
  Primal and Dual:  Fixing 478 variables.
  Primal:  Pushed 232, exchanged 155.
  Dual  :  Pushed 46, exchanged 137.

Iteration log . . .
Iteration:     1    Objective     =        211718.111420
Total crossover time = 0.03 sec. (18.47 ticks)

Total time on 1 threads = 0.16 sec. (77.28 ticks)
Root relaxation solution time = 0.16 sec. (77.28 ticks)

        Nodes                                         Cuts/
   Node  Left     Objective  IInf  Best Integer    Best Bound    ItCnt     Gap

      0     0   211718.1114   204                 211718.1114       48         
      0     0   211662.2795   204                   Cuts: 137      394         
      0     0   211645.1182   204                   Cuts: 190      607         
      0     0   211533.3398   204                   Cuts: 159      955         
      0     0   209586.7888   204                   Cuts: 103     1290         
      0     0   208042.9161   204                    Cuts: 96     1502         
      0     0   208024.0986   204                   Cuts: 142     1892         
      0     0   208024.0986   204                   Cuts: 121     2054         
      0     0   208024.0986   204                    Cuts: 79     2148         
      0     2   208024.0986   200                 208019.2835     2148         
Elapsed time = 2.47 sec. (1496.04 ticks, tree = 0.01 MB, solutions = 0)
     30    26   202102.4002   151                 207449.1820     6464         
     40    36   205548.8840   134                 207449.1820     9609         
     90    62   205340.9281   100                 207449.1820    11655         
    118    90   203700.5891    68                 207449.1820    14054         
    149   107    infeasible                       207449.1820    17840         
    191   133   200946.1191    15                 207449.1820    22109         
*   225   133      integral     0   200327.5686   207449.1820    25223    3.55%
Found incumbent of value 200327.568636 after 5.61 sec. (3250.75 ticks)

Clique cuts applied:  15
Implied bound cuts applied:  38
Flow cuts applied:  184
Mixed integer rounding cuts applied:  106

Root node processing (before b&c):
  Real time             =    2.47 sec. (1495.15 ticks)
Sequential b&c:
  Real time             =    3.14 sec. (1756.95 ticks)
                          ------------
Total (root+branch&cut) =    5.61 sec. (3252.10 ticks)
MIQP status(102): integer optimal, tolerance
Cplex Time: 5.61sec (det. 3252.11 ticks)
Fixing integer variables, and solving final QP..
Version identifier: 12.10.0.0 | 2019-11-26 | 843d4de2ae
CPXPARAM_Advance                                 2
CPXPARAM_Threads                                 1
CPXPARAM_Parallel                                1
CPXPARAM_MIP_Display                             4
CPXPARAM_Simplex_Limits_Iterations               2000000000
CPXPARAM_MIP_Limits_Nodes                        25000000
CPXPARAM_TimeLimit                               40000
CPXPARAM_Tune_TimeLimit                          8000
CPXPARAM_MIP_Tolerances_AbsMIPGap                0
CPXPARAM_MIP_Tolerances_MIPGap                   0.10000000000000001
CPXPARAM_WorkDir                                 "C:\Users\a.eicke\Documents\Locational-investment-signals\Three node models\225b\"
Number of nonzeros in lower triangle of Q = 24
Using Approximate Minimum Degree ordering
Total time for automatic ordering = 0.00 sec. (0.00 ticks)
Summary statistics for factor of Q:
  Rows in Factor            = 56
  Integer space required    = 56
  Total non-zeros in factor = 80
  Total FP ops to factor    = 128
Tried aggregator 1 time.
QP Presolve eliminated 1697 rows and 1171 columns.
QP Presolve added 0 rows and 56 columns.
Aggregator did 254 substitutions.
Reduced QP has 452 rows, 372 columns, and 1575 nonzeros.
Reduced QP objective Q matrix has 19 nonzeros.
Presolve time = 0.02 sec. (1.84 ticks)
Parallel mode: none, using 1 thread for barrier

***NOTE: Found 7 dense columns.

Number of nonzeros in lower triangle of A*A' = 2983
Using Approximate Minimum Degree ordering
Total time for automatic ordering = 0.00 sec. (0.17 ticks)
Summary statistics for Cholesky factor:
  Rows in Factor            = 459
  Integer space required    = 1817
  Total non-zeros in factor = 15233
  Total FP ops to factor    = 1023949
 Itn      Primal Obj        Dual Obj  Prim Inf Upper Inf  Dual Inf          
   0  -9.3758734e+07   2.5195023e+08  6.50e+06  5.41e+06  3.96e+05
   1  -6.4297076e+07   1.4035425e+08  8.76e+05  7.29e+05  5.34e+04
   2  -3.4427058e+07   6.1449519e+07  5.76e+04  4.79e+04  3.52e+03
   3  -1.2584476e+07   2.8476553e+07  9.88e+03  8.22e+03  6.03e+02
   4  -3.2634221e+06   7.3909289e+06  1.68e+03  1.40e+03  1.03e+02
   5  -2.1919464e+06   6.0854583e+06  9.52e+02  7.92e+02  5.81e+01
   6  -8.6251605e+05   3.1573505e+06  2.73e+02  2.27e+02  1.66e+01
   7  -4.4141558e+05   2.0257772e+06  1.38e+02  1.15e+02  8.42e+00
   8  -1.6607035e+04   7.4796205e+05  2.63e+01  2.19e+01  1.61e+00
   9   1.2844198e+05   3.3801562e+05  6.44e+00  5.37e+00  3.93e-01
  10   1.6018975e+05   2.8384023e+05  2.78e+00  2.32e+00  1.70e-01
  11   1.8333321e+05   2.3559621e+05  9.30e-01  7.74e-01  5.68e-02
  12   1.9206622e+05   2.1932787e+05  3.88e-01  3.23e-01  2.37e-02
  13   1.9631757e+05   2.0837131e+05  3.80e-02  3.16e-02  2.32e-03
  14   1.9759328e+05   2.0562321e+05  2.17e-02  1.81e-02  1.33e-03
  15   1.9911330e+05   2.0282532e+05  1.52e-06  1.58e-11  4.81e-07
  16   2.0015120e+05   2.0067913e+05  3.41e-06  1.28e-12  1.78e-07
  17   2.0027285e+05   2.0043484e+05  4.31e-06  1.55e-11  5.76e-08
  18   2.0031626e+05   2.0035063e+05  1.99e-06  1.02e-12  1.36e-08
  19   2.0032701e+05   2.0032866e+05  2.36e-06  1.10e-12  7.45e-10
  20   2.0032756e+05   2.0032758e+05  1.92e-06  1.16e-12  9.25e-10
  21   2.0032756e+05   2.0032483e+05  3.84e-05  1.33e-12  3.43e-02
  22   2.0032745e+05   2.0032720e+05  7.67e-04  1.56e-11  4.66e-03
  *    2.0032756e+05   2.0032758e+05  1.92e-06  1.16e-12  9.25e-10
Barrier time = 0.03 sec. (18.01 ticks)

Total time on 1 threads = 0.03 sec. (18.01 ticks)
QP status(6): non-optimal
Cplex Time: 0.03sec (det. 18.01 ticks)
Final solve did not return an optimal solution.
Returning a primal only solution to GAMS (marginals all set to NA).

Solution satisfies tolerances.

MIP Solution:       200327.568636    (25223 iterations, 226 nodes)
Best possible:      207449.182045
Absolute gap:         7121.613409
Relative gap:            0.034329

--- Restarting execution
--- zonal_with_locational_instrument.gms(293) 2 Mb
--- Reading solution for model LOCI
***
*** Solver did not provide marginals for model LOCI
***
--- Executing after solve: elapsed 0:00:05.859
--- zonal_with_locational_instrument.gms(319) 3 Mb
--- GDX File C:\Users\a.eicke\Documents\Locational-investment-signals\Three node models\Output/with_instrument.gdx
*** Status: Normal completion
--- Job zonal_with_locational_instrument.gms Stop 11/26/21 22:33:45 elapsed 0:00:05.864
